p cnf 431 1640
c max 5 6 7 8 9 10 11 12 13 14 15 16 17 18 19 20 21 22 23 24 25 26 27 28 29 30 31 32 33 34 35 36 108 109 110 111 112 113 114 115 116 117 118 119 120 121 122 123 140 141 142 143 144 145 146 147 148 149 150 151 152 153 154 155 243 244 245 246 247 248 249 250 251 252 253 254 255 256 257 258 346 347 348 349 350 351 352 353 354 355 356 357 358 359 360 361 362 363 364 365 366 367 368 369 370 371 372 373 374 375 376 377 378 379 380 381 382 383 384 385 386 387 388 389 390 391 392 393 394 395 396 400 401 402 406 407 408 412 413 414 416 417 418 420 421 422 426 427 431 0
c ind 1 2 3 4 37 38 39 40 41 42 43 44 45 46 47 48 49 50 51 52 53 54 55 56 57 58 59 60 61 62 63 64 65 66 67 68 69 70 71 72 73 74 75 76 77 78 79 80 81 82 83 84 85 86 87 88 89 90 91 92 93 94 95 96 97 98 99 100 101 102 103 104 105 106 124 125 126 127 128 129 130 131 132 133 134 135 136 137 138 139 156 157 158 159 160 161 162 163 164 165 166 167 168 169 170 171 172 173 174 175 176 177 178 179 180 181 182 183 184 185 186 187 188 189 190 191 192 193 194 195 196 197 198 199 200 201 202 203 204 205 206 207 208 209 210 211 212 213 214 215 216 217 218 219 220 221 222 223 224 225 227 228 229 230 231 232 233 234 235 236 237 238 239 240 241 242 259 260 261 262 263 264 265 266 267 268 269 270 271 272 273 274 275 276 277 278 279 280 281 282 283 284 285 286 287 288 289 290 291 292 293 294 295 296 297 298 299 300 301 302 303 304 305 306 307 308 309 310 311 312 313 314 315 316 317 318 319 320 321 322 323 324 325 326 327 328 330 331 332 333 334 335 336 337 338 339 340 341 342 343 344 345 397 398 399 403 404 405 409 410 411 415 419 423 424 425 430 0
4 0
106 0
-107 0
225 0
-226 0
328 0
-329 0
-428 0
-429 0
430 0
-103 -71 0
-103 -72 0
-103 -73 0
-103 -74 0
-103 -75 0
-103 -76 0
-103 -77 0
-103 -78 0
-103 -79 0
-103 -80 0
-103 -81 0
-103 -82 0
-103 -83 0
-103 -84 0
-222 -190 0
-222 -191 0
-222 -192 0
-222 -193 0
-222 -194 0
-222 -195 0
-222 -196 0
-222 -198 0
-222 -199 0
-222 -200 0
-222 -201 0
-222 -202 0
-222 -203 0
-222 -204 0
-325 -294 0
-325 -295 0
-325 -296 0
-325 -297 0
-325 -298 0
-325 -299 0
-325 -300 0
-325 -301 0
-325 -302 0
-325 -303 0
-325 -304 0
-325 -305 0
-325 -306 0
-325 -307 0
-10 26 -42 0
6 -141 157 0
15 -268 269 0
-14 164 -165 0
-149 -164 165 0
-14 252 302 0
14 252 -302 0
-13 -29 -79 0
16 32 -82 0
33 48 -49 0
14 -252 268 0
-18 -256 -306 0
6 -22 38 0
-13 266 -267 0
-19 35 -103 0
-9 144 194 0
-6 244 -260 0
-15 165 -166 0
-13 -148 -198 0
8 -246 296 0
-9 -144 -194 0
-17 167 -168 0
-20 -154 -169 222 416 417 418 0
-16 32 -48 0
12 20 147 155 190 191 192 193 194 195 196 198 199 200 201 202 203 204 222 0
10 -145 161 0
13 -29 45 0
-15 31 -47 0
14 -45 46 0
-19 257 307 0
144 159 -160 0
-8 -24 -74 0
-13 148 198 0
18 -271 272 0
30 45 -46 0
-14 30 -46 0
18 34 -84 0
8 -158 159 0
-147 -162 163 0
14 -267 268 0
-19 -154 -204 0
-10 -26 -76 0
145 160 -161 0
-17 -33 -83 0
-11 -249 -299 0
249 264 -265 0
5 -22 38 0
19 -20 -154 416 417 418 0
5 140 -190 0
-7 38 -39 0
-11 27 -43 0
7 -38 39 0
19 -154 155 416 417 418 0
5 -244 260 0
7 -23 73 0
-16 -254 -304 0
-243 -244 260 0
-12 43 -44 0
-11 146 196 0
13 -148 198 0
-246 -261 262 0
-5 243 244 -260 0
14 -30 80 0
-150 -165 166 0
-8 24 -40 0
-20 -35 -50 103 412 413 414 0
-14 -252 -302 0
-17 -152 -202 0
-10 248 298 0
16 -151 201 0
19 257 -307 0
14 -149 199 0
-7 23 73 0
-11 -146 -196 0
-245 -260 261 0
7 -142 192 0
11 27 -77 0
16 -32 48 0
6 141 -191 0
16 -166 167 0
9 25 -75 0
-17 270 -271 0
-17 33 -49 0
-11 42 -43 0
-17 33 83 0
16 -269 270 0
-143 -158 159 0
10 -26 76 0
-12 -250 -300 0
16 -254 270 0
-12 250 -266 0
-16 32 82 0
-18 34 84 0
-7 157 -158 0
-6 -141 -191 0
11 -146 162 0
-247 -262 263 0
12 250 -300 0
-8 246 296 0
11 -27 77 0
-9 40 -41 0
-11 146 -162 0
7 245 -295 0
-13 251 -267 0
13 -29 79 0
-27 -42 43 0
8 -246 262 0
-12 147 -163 0
6 22 -72 0
13 -266 267 0
14 149 -199 0
-6 244 294 0
-18 -153 -203 0
25 40 -41 0
9 144 -194 0
-18 49 -50 0
-9 144 -160 0
-9 -247 -297 0
15 -165 166 0
-9 262 -263 0
-8 -246 -296 0
-14 -30 -80 0
-11 -27 -77 0
9 -144 160 0
18 -256 272 0
10 248 -298 0
-253 -268 269 0
7 -245 261 0
6 244 -294 0
7 -157 158 0
-20 258 -325 0
-25 -40 41 0
17 -270 271 0
15 -46 47 0
-15 31 81 0
-5 -6 243 -260 0
-29 -44 45 0
11 146 -196 0
-153 -168 169 0
-12 28 78 0
-5 20 -243 258 294 295 296 297 298 299 300 301 302 303 304 305 306 307 325 0
-254 -269 270 0
27 42 -43 0
-14 149 -165 0
-13 29 79 0
19 -20 -272 325 420 421 422 0
9 -25 41 0
13 -163 164 0
-16 269 -270 0
12 -28 44 0
-7 -142 -192 0
-249 -264 265 0
12 -43 44 0
5 20 243 258 294 295 296 297 298 299 300 301 302 303 304 305 306 307 325 0
17 -167 168 0
13 29 -79 0
8 -39 40 0
-23 -38 39 0
-6 -22 -72 0
-16 -32 -82 0
-13 44 -45 0
-9 25 75 0
-15 268 -269 0
12 28 -78 0
152 167 -168 0
6 -21 38 0
-14 149 199 0
-12 250 300 0
10 26 -76 0
17 -255 271 0
-19 20 -35 36 71 72 73 74 75 76 77 78 79 80 81 82 83 84 103 0
-19 -257 -307 0
-7 260 -261 0
-8 -143 -193 0
9 -247 297 0
-26 -41 42 0
-21 -22 38 0
-20 258 420 421 422 0
5 -21 71 0
-14 -149 -199 0
19 -35 -103 0
252 267 -268 0
-251 -266 267 0
-15 -253 -303 0
-13 -251 -301 0
-250 -265 266 0
11 249 -299 0
9 -144 194 0
5 6 157 0
-9 -25 -75 0
-7 245 295 0
-18 153 -169 0
12 -250 266 0
-10 263 -264 0
9 -40 41 0
-8 246 -262 0
253 268 -269 0
-18 153 203 0
-256 -271 272 0
10 -41 42 0
16 -254 304 0
-6 141 191 0
-7 142 -158 0
18 -153 169 0
-13 148 -164 0
13 -251 301 0
8 246 -296 0
-9 25 -41 0
-17 255 -271 0
14 -252 302 0
-5 -21 -71 0
251 266 -267 0
-7 245 -261 0
-11 264 -265 0
18 -153 203 0
9 -247 263 0
-145 -160 161 0
8 -24 40 0
10 -145 195 0
13 -148 164 0
-10 160 -161 0
246 261 -262 0
-16 254 304 0
-11 27 77 0
11 -249 265 0
-148 -163 164 0
151 166 -167 0
23 38 -39 0
-7 142 192 0
-12 28 -44 0
-18 34 -50 0
5 6 38 0
-18 256 306 0
-15 46 -47 0
15 150 -200 0
6 -141 191 0
7 -142 158 0
-35 36 -50 103 412 413 414 0
-142 -157 158 0
-8 24 74 0
18 -49 50 0
19 20 35 36 71 72 73 74 75 76 77 78 79 80 81 82 83 84 103 0
9 -262 263 0
17 -255 305 0
-17 152 202 0
-11 249 299 0
-10 145 -161 0
143 158 -159 0
-33 -48 49 0
10 145 -195 0
18 -34 84 0
-154 155 -169 222 416 417 418 0
-10 -248 -298 0
16 254 -304 0
15 -31 81 0
13 148 -198 0
17 -152 168 0
-12 162 -163 0
15 -253 303 0
-15 -150 -200 0
32 47 -48 0
-12 147 -222 0
-7 -23 -73 0
7 -245 295 0
12 -28 78 0
-19 -20 -35 -36 71 72 73 74 75 76 77 78 79 80 81 82 83 84 103 0
19 -20 -35 412 413 414 0
19 -20 -257 420 421 422 0
18 256 -306 0
-24 -39 40 0
20 -155 -222 0
-6 22 -38 0
-7 -245 -295 0
-17 48 -49 0
-252 -267 268 0
-5 21 71 0
11 -27 43 0
-9 247 -263 0
12 -250 300 0
19 154 -204 0
19 -20 35 -36 71 72 73 74 75 76 77 78 79 80 81 82 83 84 103 0
-9 159 -160 0
18 153 -203 0
153 168 -169 0
148 163 -164 0
-18 271 -272 0
5 -140 190 0
17 -33 83 0
256 271 -272 0
-5 243 -325 0
6 -22 72 0
-6 141 -157 0
-12 20 -147 155 190 191 192 193 194 195 196 198 199 200 201 202 203 204 222 0
-10 26 76 0
8 -261 262 0
-10 145 195 0
8 143 -193 0
16 -151 167 0
-20 36 412 413 414 0
14 30 -80 0
-16 254 -270 0
-8 158 -159 0
6 -243 260 0
19 -257 258 420 421 422 0
-20 155 416 417 418 0
-16 -151 -201 0
14 -149 165 0
-255 -270 271 0
-16 47 -48 0
19 -257 307 0
18 -256 306 0
-20 36 -103 0
-15 253 303 0
-12 -28 -78 0
5 21 -71 0
17 152 -202 0
13 -44 45 0
-34 -49 50 0
-13 163 -164 0
-8 143 193 0
5 -20 243 -258 294 295 296 297 298 299 300 301 302 303 304 305 306 307 325 0
10 -160 161 0
14 -164 165 0
10 -248 264 0
-152 -167 168 0
-5 -20 -243 -258 294 295 296 297 298 299 300 301 302 303 304 305 306 307 325 0
31 46 -47 0
19 36 -50 103 412 413 414 0
-20 155 -222 0
-5 -140 -190 0
15 -150 166 0
-15 -31 -81 0
17 -33 49 0
6 -244 260 0
15 -253 269 0
147 162 -163 0
-13 251 301 0
26 41 -42 0
7 -260 261 0
-14 267 -268 0
-20 -257 -272 325 420 421 422 0
16 151 -201 0
10 -26 42 0
20 -258 -325 0
12 -147 -222 0
8 -143 193 0
5 -243 -325 0
5 6 260 0
-8 39 -40 0
250 265 -266 0
12 -162 163 0
-15 150 -166 0
-5 -6 21 -38 0
-6 22 72 0
13 251 -301 0
142 157 -158 0
-17 -255 -305 0
248 263 -264 0
150 165 -166 0
19 155 -169 222 416 417 418 0
-11 249 -265 0
7 -23 39 0
-17 255 305 0
29 44 -45 0
34 49 -50 0
-28 -43 44 0
11 -264 265 0
-12 265 -266 0
11 -161 162 0
-248 -263 264 0
-16 151 201 0
9 -159 160 0
-19 154 204 0
254 269 -270 0
-30 -45 46 0
245 260 -261 0
9 247 -297 0
-16 166 -167 0
12 -20 147 -155 190 191 192 193 194 195 196 198 199 200 201 202 203 204 222 0
-5 -6 140 -157 0
-15 150 200 0
12 -265 266 0
18 -168 169 0
16 -47 48 0
-151 -166 167 0
-31 -46 47 0
247 262 -263 0
-257 258 -272 325 420 421 422 0
28 43 -44 0
6 -140 157 0
19 -20 -50 103 412 413 414 0
12 -147 163 0
15 253 -303 0
-15 253 -269 0
-6 -244 -294 0
-16 151 -167 0
19 -154 204 0
-14 30 80 0
-10 -145 -195 0
7 142 -192 0
-14 45 -46 0
8 -24 74 0
-5 140 141 -157 0
-13 29 -45 0
18 -34 50 0
14 -30 46 0
10 -263 264 0
13 -251 267 0
7 23 -73 0
255 270 -271 0
-7 23 -39 0
146 161 -162 0
8 24 -74 0
-14 252 -268 0
10 -248 298 0
-18 256 -272 0
11 -249 299 0
5 -141 157 0
20 -36 -103 0
-11 161 -162 0
15 31 -81 0
-5 140 190 0
19 -35 36 412 413 414 0
-10 41 -42 0
149 164 -165 0
6 -244 294 0
-10 248 -264 0
17 33 -83 0
-17 152 -168 0
-18 168 -169 0
-5 21 22 -38 0
15 -150 200 0
16 -32 82 0
-140 -141 157 0
15 -31 47 0
-8 143 -159 0
-12 -20 -147 -155 190 191 192 193 194 195 196 198 199 200 201 202 203 204 222 0
11 -42 43 0
11 -146 196 0
-8 261 -262 0
24 39 -40 0
-18 -34 -84 0
19 258 -272 325 420 421 422 0
-9 247 297 0
17 255 -305 0
19 -20 -169 222 416 417 418 0
-32 -47 48 0
17 -152 202 0
8 -143 159 0
-144 -159 160 0
17 -48 49 0
9 -25 75 0
-146 -161 162 0
-1 -5 124 0
1 -21 124 0
-1 5 -124 0
1 21 -124 0
-1 -6 125 0
1 -22 125 0
1 22 -125 0
-1 6 -125 0
1 -23 126 0
-1 -7 126 0
1 23 -126 0
-1 7 -126 0
1 -24 127 0
-1 -8 127 0
-1 8 -127 0
1 24 -127 0
1 -25 128 0
-1 -9 128 0
1 25 -128 0
-1 9 -128 0
-1 -10 129 0
1 -26 129 0
1 26 -129 0
-1 10 -129 0
-1 -11 130 0
1 -27 130 0
1 27 -130 0
-1 11 -130 0
-1 -12 131 0
1 -28 131 0
-1 12 -131 0
1 28 -131 0
1 -29 132 0
-1 -13 132 0
-1 13 -132 0
1 29 -132 0
1 -30 133 0
-1 -14 133 0
1 30 -133 0
-1 14 -133 0
-1 -15 134 0
1 -31 134 0
-1 15 -134 0
1 31 -134 0
-1 -16 135 0
1 -32 135 0
-1 16 -135 0
1 32 -135 0
1 -33 136 0
-1 -17 136 0
1 33 -136 0
-1 17 -136 0
1 -34 137 0
-1 -18 137 0
-1 18 -137 0
1 34 -137 0
1 -35 138 0
-1 -19 138 0
-1 19 -138 0
1 35 -138 0
-1 -20 139 0
1 -36 139 0
1 36 -139 0
-1 20 -139 0
-2 -5 227 0
2 -140 227 0
2 140 -227 0
-2 5 -227 0
-2 -6 228 0
2 -141 228 0
2 141 -228 0
-2 6 -228 0
-2 -7 229 0
2 -142 229 0
-2 7 -229 0
2 142 -229 0
-2 -8 230 0
2 -143 230 0
2 143 -230 0
-2 8 -230 0
2 -144 231 0
-2 -9 231 0
-2 9 -231 0
2 144 -231 0
-2 -10 232 0
2 -145 232 0
-2 10 -232 0
2 145 -232 0
2 -146 233 0
-2 -11 233 0
2 146 -233 0
-2 11 -233 0
-2 -12 234 0
2 -147 234 0
2 147 -234 0
-2 12 -234 0
2 -148 235 0
-2 -13 235 0
2 148 -235 0
-2 13 -235 0
2 -149 236 0
-2 -14 236 0
-2 14 -236 0
2 149 -236 0
-2 -15 237 0
2 -150 237 0
-2 15 -237 0
2 150 -237 0
2 -151 238 0
-2 -16 238 0
-2 16 -238 0
2 151 -238 0
2 -152 239 0
-2 -17 239 0
-2 17 -239 0
2 152 -239 0
-2 -18 240 0
2 -153 240 0
-2 18 -240 0
2 153 -240 0
2 -154 241 0
-2 -19 241 0
-2 19 -241 0
2 154 -241 0
2 -155 242 0
-2 -20 242 0
2 155 -242 0
-2 20 -242 0
3 -243 330 0
-3 -5 330 0
-3 5 -330 0
3 243 -330 0
-3 -6 331 0
3 -244 331 0
-3 6 -331 0
3 244 -331 0
3 -245 332 0
-3 -7 332 0
3 245 -332 0
-3 7 -332 0
3 -246 333 0
-3 -8 333 0
-3 8 -333 0
3 246 -333 0
-3 -9 334 0
3 -247 334 0
3 247 -334 0
-3 9 -334 0
-3 -10 335 0
3 -248 335 0
-3 10 -335 0
3 248 -335 0
-3 -11 336 0
3 -249 336 0
3 249 -336 0
-3 11 -336 0
-3 -12 337 0
3 -250 337 0
3 250 -337 0
-3 12 -337 0
-3 -13 338 0
3 -251 338 0
-3 13 -338 0
3 251 -338 0
3 -252 339 0
-3 -14 339 0
3 252 -339 0
-3 14 -339 0
3 -253 340 0
-3 -15 340 0
3 253 -340 0
-3 15 -340 0
-3 -16 341 0
3 -254 341 0
3 254 -341 0
-3 16 -341 0
3 -255 342 0
-3 -17 342 0
3 255 -342 0
-3 17 -342 0
3 -256 343 0
-3 -18 343 0
3 256 -343 0
-3 18 -343 0
3 -257 344 0
-3 -19 344 0
-3 19 -344 0
3 257 -344 0
-3 -20 345 0
3 -258 345 0
-3 20 -345 0
3 258 -345 0
394 397 -412 0
-394 397 412 0
-394 -397 -412 0
394 -397 412 0
-395 398 413 0
395 398 -413 0
-395 -398 -413 0
395 -398 413 0
-396 399 414 0
396 399 -414 0
396 -399 414 0
-396 -399 -414 0
400 403 -416 0
-400 403 416 0
400 -403 416 0
-400 -403 -416 0
401 404 -417 0
-401 404 417 0
401 -404 417 0
-401 -404 -417 0
-402 405 418 0
402 405 -418 0
-402 -405 -418 0
402 -405 418 0
-406 409 420 0
406 409 -420 0
406 -409 420 0
-406 -409 -420 0
-407 410 421 0
407 410 -421 0
-407 -410 -421 0
407 -410 421 0
-408 411 422 0
408 411 -422 0
408 -411 422 0
-408 -411 -422 0
424 -426 0
-424 426 0
425 -427 0
-425 427 0
1 104 0
-1 -104 0
2 223 0
-2 -223 0
3 326 0
-3 -326 0
105 -415 0
-105 104 0
-105 415 0
224 -419 0
-224 223 0
-224 419 0
327 -423 0
-327 326 0
-327 423 0
104 -103 0
104 -70 0
104 -415 0
70 103 -104 0
223 -222 0
223 -189 0
223 -419 0
189 222 -223 0
326 -325 0
326 -292 0
326 -423 0
292 325 -326 0
412 413 414 415 0
-415 -414 0
-415 -412 0
-415 -413 0
70 103 -415 0
416 417 418 419 0
-419 -418 0
-419 -416 0
-419 -417 0
189 222 -419 0
420 421 422 423 0
-423 -422 0
-423 -420 0
-423 -421 0
292 325 -423 0
68 69 70 0
-68 -69 70 0
70 103 412 413 414 0
-68 69 -70 0
68 -69 -70 0
-290 -291 292 0
290 291 292 0
292 325 420 421 422 0
-290 291 -292 0
290 -291 -292 0
-187 -188 189 0
187 188 189 0
189 222 416 417 418 0
187 -188 -189 0
-187 188 -189 0
-20 36 69 0
20 -36 69 0
-68 69 103 412 413 414 0
20 36 -69 0
-20 -36 -69 0
68 -69 103 412 413 414 0
-20 258 291 0
20 -258 291 0
-290 291 325 420 421 422 0
20 258 -291 0
-20 -258 -291 0
290 -291 325 420 421 422 0
-20 155 188 0
20 -155 188 0
-187 188 222 416 417 418 0
20 155 -188 0
-20 -155 -188 0
187 -188 222 416 417 418 0
-6 37 -38 0
22 37 -38 0
37 -21 0
37 5 0
-22 -37 38 0
6 -37 38 0
-5 21 -37 0
-6 156 -157 0
141 156 -157 0
156 -140 0
156 5 0
6 -156 157 0
-141 -156 157 0
-5 140 -156 0
244 259 -260 0
-6 259 -260 0
259 -243 0
259 5 0
-244 -259 260 0
6 -259 260 0
-5 243 -259 0
20 -67 68 0
-36 -67 68 0
20 -36 68 0
-20 67 -68 0
36 67 -68 0
-20 36 -68 0
36 -68 103 412 413 414 0
-20 -68 103 412 413 414 0
-20 -289 290 0
258 -289 290 0
20 -258 290 0
-20 289 -290 0
258 289 -290 0
-20 258 -290 0
258 -290 325 420 421 422 0
-20 -290 325 420 421 422 0
-20 -186 187 0
155 -186 187 0
20 -155 187 0
155 186 -187 0
-20 186 -187 0
-20 155 -187 0
155 -187 222 416 417 418 0
-20 -187 222 416 417 418 0
-36 -66 67 0
20 -66 67 0
20 -36 67 0
20 66 -67 0
-36 66 -67 0
-20 36 -67 0
-20 -67 103 412 413 414 0
36 -67 103 412 413 414 0
155 -185 186 0
-20 -185 186 0
20 -155 186 0
-20 185 -186 0
155 185 -186 0
-20 -186 222 416 417 418 0
-20 155 -186 0
155 -186 222 416 417 418 0
258 -288 289 0
-20 -288 289 0
20 -258 289 0
258 288 -289 0
-20 288 -289 0
-20 -289 325 420 421 422 0
-20 258 -289 0
258 -289 325 420 421 422 0
155 -184 185 0
-20 -184 185 0
20 -155 185 0
-20 184 -185 0
155 184 -185 0
-20 -185 222 416 417 418 0
-20 155 -185 0
155 -185 222 416 417 418 0
20 -65 66 0
-36 -65 66 0
20 -36 66 0
-36 65 -66 0
20 65 -66 0
-20 36 -66 0
-20 -66 103 412 413 414 0
36 -66 103 412 413 414 0
155 -183 184 0
-20 -183 184 0
20 -155 184 0
-20 183 -184 0
155 183 -184 0
-20 -184 222 416 417 418 0
-20 155 -184 0
155 -184 222 416 417 418 0
258 -287 288 0
-20 -287 288 0
20 -258 288 0
-20 287 -288 0
258 287 -288 0
-20 -288 325 420 421 422 0
-20 258 -288 0
258 -288 325 420 421 422 0
-20 -182 183 0
155 -182 183 0
20 -155 183 0
-20 182 -183 0
155 182 -183 0
-20 -183 222 416 417 418 0
-20 155 -183 0
155 -183 222 416 417 418 0
-36 -64 65 0
20 -64 65 0
20 -36 65 0
20 64 -65 0
-36 64 -65 0
-20 36 -65 0
-20 -65 103 412 413 414 0
36 -65 103 412 413 414 0
155 -181 182 0
-20 -181 182 0
20 -155 182 0
155 181 -182 0
-20 181 -182 0
-20 -182 222 416 417 418 0
-20 155 -182 0
155 -182 222 416 417 418 0
258 -286 287 0
-20 -286 287 0
20 -258 287 0
-20 286 -287 0
258 286 -287 0
-20 -287 325 420 421 422 0
-20 258 -287 0
258 -287 325 420 421 422 0
155 -180 181 0
-20 -180 181 0
20 -155 181 0
-20 180 -181 0
155 180 -181 0
-20 -181 222 416 417 418 0
-20 155 -181 0
155 -181 222 416 417 418 0
-36 -63 64 0
20 -63 64 0
20 -36 64 0
20 63 -64 0
-36 63 -64 0
-20 36 -64 0
-20 -64 103 412 413 414 0
36 -64 103 412 413 414 0
-20 -179 180 0
155 -179 180 0
20 -155 180 0
-20 179 -180 0
155 179 -180 0
-20 -180 222 416 417 418 0
-20 155 -180 0
155 -180 222 416 417 418 0
258 -285 286 0
-20 -285 286 0
20 -258 286 0
258 285 -286 0
-20 285 -286 0
-20 -286 325 420 421 422 0
-20 258 -286 0
258 -286 325 420 421 422 0
155 -178 179 0
-20 -178 179 0
20 -155 179 0
155 178 -179 0
-20 178 -179 0
-20 -179 222 416 417 418 0
-20 155 -179 0
155 -179 222 416 417 418 0
20 -62 63 0
-36 -62 63 0
20 -36 63 0
20 62 -63 0
-36 62 -63 0
-20 36 -63 0
-20 -63 103 412 413 414 0
36 -63 103 412 413 414 0
-20 -177 178 0
155 -177 178 0
20 -155 178 0
155 177 -178 0
-20 177 -178 0
-20 -178 222 416 417 418 0
-20 155 -178 0
155 -178 222 416 417 418 0
-20 -284 285 0
258 -284 285 0
20 -258 285 0
-20 284 -285 0
258 284 -285 0
-20 -285 325 420 421 422 0
-20 258 -285 0
258 -285 325 420 421 422 0
155 -176 177 0
-20 -176 177 0
20 -155 177 0
-20 176 -177 0
155 176 -177 0
-20 -177 222 416 417 418 0
-20 155 -177 0
155 -177 222 416 417 418 0
-36 -61 62 0
20 -61 62 0
20 -36 62 0
20 61 -62 0
-36 61 -62 0
-20 36 -62 0
-20 -62 103 412 413 414 0
36 -62 103 412 413 414 0
155 -175 176 0
-20 -175 176 0
20 -155 176 0
-20 175 -176 0
155 175 -176 0
-20 -176 222 416 417 418 0
-20 155 -176 0
155 -176 222 416 417 418 0
-36 -60 61 0
20 -60 61 0
20 -36 61 0
20 60 -61 0
-36 60 -61 0
-20 36 -61 0
-20 -61 103 412 413 414 0
36 -61 103 412 413 414 0
-20 -174 175 0
155 -174 175 0
20 -155 175 0
-20 174 -175 0
155 174 -175 0
-20 -175 222 416 417 418 0
-20 155 -175 0
155 -175 222 416 417 418 0
20 -59 60 0
-36 -59 60 0
20 -36 60 0
20 59 -60 0
-36 59 -60 0
-20 36 -60 0
-20 -60 103 412 413 414 0
36 -60 103 412 413 414 0
155 -173 174 0
-20 -173 174 0
20 -155 174 0
-20 173 -174 0
155 173 -174 0
-20 -174 222 416 417 418 0
-20 155 -174 0
155 -174 222 416 417 418 0
-36 -58 59 0
20 -58 59 0
20 -36 59 0
20 58 -59 0
-36 58 -59 0
-20 36 -59 0
-20 -59 103 412 413 414 0
36 -59 103 412 413 414 0
155 -172 173 0
-20 -172 173 0
20 -155 173 0
-20 172 -173 0
155 172 -173 0
-20 -173 222 416 417 418 0
-20 155 -173 0
155 -173 222 416 417 418 0
-36 -57 58 0
20 -57 58 0
20 -36 58 0
-36 57 -58 0
20 57 -58 0
-20 36 -58 0
-20 -58 103 412 413 414 0
36 -58 103 412 413 414 0
155 -171 172 0
-20 -171 172 0
20 -155 172 0
-20 171 -172 0
155 171 -172 0
-20 -172 222 416 417 418 0
-20 155 -172 0
155 -172 222 416 417 418 0
20 -56 57 0
-36 -56 57 0
20 -36 57 0
20 56 -57 0
-36 56 -57 0
-20 36 -57 0
-20 -57 103 412 413 414 0
36 -57 103 412 413 414 0
20 -170 171 0
-155 -170 171 0
20 -155 171 0
155 170 -171 0
-20 170 -171 0
-20 -171 222 416 417 418 0
-20 155 -171 0
155 -171 222 416 417 418 0
-36 -55 56 0
20 -55 56 0
20 -36 56 0
20 55 -56 0
-36 55 -56 0
-20 36 -56 0
-20 -56 103 412 413 414 0
36 -56 103 412 413 414 0
19 -169 170 0
-154 -169 170 0
19 -154 170 0
154 169 -170 0
-19 169 -170 0
-19 154 -170 0
-20 -170 222 416 417 418 0
155 -170 222 416 417 418 0
-36 -54 55 0
20 -54 55 0
20 -36 55 0
20 54 -55 0
-36 54 -55 0
-20 36 -55 0
-20 -55 103 412 413 414 0
36 -55 103 412 413 414 0
258 -283 284 0
-20 -283 284 0
20 -258 284 0
-20 283 -284 0
258 283 -284 0
-20 -284 325 420 421 422 0
-20 258 -284 0
258 -284 325 420 421 422 0
-36 -53 54 0
20 -53 54 0
20 -36 54 0
20 53 -54 0
-36 53 -54 0
-20 36 -54 0
-20 -54 103 412 413 414 0
36 -54 103 412 413 414 0
-20 -282 283 0
258 -282 283 0
20 -258 283 0
258 282 -283 0
-20 282 -283 0
-20 -283 325 420 421 422 0
-20 258 -283 0
258 -283 325 420 421 422 0
-36 -52 53 0
20 -52 53 0
20 -36 53 0
-36 52 -53 0
20 52 -53 0
-20 36 -53 0
-20 -53 103 412 413 414 0
36 -53 103 412 413 414 0
-20 -281 282 0
258 -281 282 0
20 -258 282 0
-20 281 -282 0
258 281 -282 0
-20 -282 325 420 421 422 0
-20 258 -282 0
258 -282 325 420 421 422 0
20 -51 52 0
-36 -51 52 0
20 -36 52 0
36 51 -52 0
-20 51 -52 0
-20 36 -52 0
-20 -52 103 412 413 414 0
36 -52 103 412 413 414 0
258 -280 281 0
-20 -280 281 0
20 -258 281 0
-20 280 -281 0
258 280 -281 0
-20 -281 325 420 421 422 0
-20 258 -281 0
258 -281 325 420 421 422 0
19 -50 51 0
-35 -50 51 0
19 -35 51 0
-19 50 -51 0
35 50 -51 0
-19 35 -51 0
-20 -51 103 412 413 414 0
36 -51 103 412 413 414 0
-20 -279 280 0
258 -279 280 0
20 -258 280 0
258 279 -280 0
-20 279 -280 0
-20 -280 325 420 421 422 0
-20 258 -280 0
258 -280 325 420 421 422 0
258 -278 279 0
-20 -278 279 0
20 -258 279 0
-20 278 -279 0
258 278 -279 0
-20 -279 325 420 421 422 0
-20 258 -279 0
258 -279 325 420 421 422 0
-20 -277 278 0
258 -277 278 0
20 -258 278 0
-20 277 -278 0
258 277 -278 0
-20 -278 325 420 421 422 0
-20 258 -278 0
258 -278 325 420 421 422 0
-20 -276 277 0
258 -276 277 0
20 -258 277 0
-20 276 -277 0
258 276 -277 0
-20 -277 325 420 421 422 0
-20 258 -277 0
258 -277 325 420 421 422 0
258 -275 276 0
-20 -275 276 0
20 -258 276 0
258 275 -276 0
-20 275 -276 0
-20 -276 325 420 421 422 0
-20 258 -276 0
258 -276 325 420 421 422 0
-20 -274 275 0
258 -274 275 0
20 -258 275 0
-20 274 -275 0
258 274 -275 0
-20 -275 325 420 421 422 0
-20 258 -275 0
258 -275 325 420 421 422 0
20 -273 274 0
-258 -273 274 0
20 -258 274 0
-20 273 -274 0
258 273 -274 0
-20 -274 325 420 421 422 0
-20 258 -274 0
258 -274 325 420 421 422 0
-257 -272 273 0
19 -272 273 0
19 -257 273 0
257 272 -273 0
-19 272 -273 0
-19 257 -273 0
-20 -273 325 420 421 422 0
258 -273 325 420 421 422 0
308 -317 0
20 -258 308 0
-20 258 308 0
-308 317 0
-308 -325 0
20 258 -308 0
-20 -258 -308 0
309 -317 0
-20 258 309 0
20 -258 309 0
-309 317 0
-309 -325 0
-20 -258 -309 0
20 258 -309 0
310 -317 0
20 -258 310 0
-20 258 310 0
-310 317 0
-310 -325 0
-20 -258 -310 0
20 258 -310 0
311 -317 0
-20 258 311 0
20 -258 311 0
-311 317 0
-311 -325 0
20 258 -311 0
-20 -258 -311 0
312 -317 0
20 -258 312 0
-20 258 312 0
-312 317 0
-312 -325 0
-20 -258 -312 0
20 258 -312 0
20 -258 313 0
-20 258 313 0
313 -317 0
-20 -258 -313 0
20 258 -313 0
-313 -325 0
-313 317 0
20 -258 314 0
314 -317 0
-20 258 314 0
20 258 -314 0
-314 317 0
-314 -325 0
-20 -258 -314 0
-20 258 315 0
315 -317 0
20 -258 315 0
-20 -258 -315 0
-315 317 0
-315 -325 0
20 258 -315 0
-20 258 316 0
316 -317 0
20 -258 316 0
20 258 -316 0
-316 317 0
-316 -325 0
-20 -258 -316 0
102 -93 0
-20 36 102 0
20 -36 102 0
-102 93 0
-102 -103 0
20 36 -102 0
-20 -36 -102 0
86 -93 0
-20 36 86 0
20 -36 86 0
-86 93 0
-86 -103 0
-20 -36 -86 0
20 36 -86 0
87 -93 0
-20 36 87 0
20 -36 87 0
-87 93 0
-87 -103 0
-20 -36 -87 0
20 36 -87 0
89 -93 0
20 -36 89 0
-20 36 89 0
-89 93 0
-89 -103 0
-20 -36 -89 0
20 36 -89 0
90 -93 0
20 -36 90 0
-20 36 90 0
-90 93 0
-90 -103 0
20 36 -90 0
-20 -36 -90 0
91 -93 0
-20 36 91 0
20 -36 91 0
-91 93 0
-91 -103 0
-20 -36 -91 0
20 36 -91 0
88 -93 0
20 -36 88 0
-20 36 88 0
-88 93 0
-88 -103 0
20 36 -88 0
-20 -36 -88 0
92 -93 0
-20 36 92 0
20 -36 92 0
-92 93 0
-92 -103 0
-20 -36 -92 0
20 36 -92 0
212 -208 0
-20 155 212 0
20 -155 212 0
-212 208 0
-212 -222 0
20 155 -212 0
-20 -155 -212 0
205 -208 0
-20 155 205 0
20 -155 205 0
-205 208 0
20 155 -205 0
-205 -222 0
-20 -155 -205 0
206 -208 0
-20 155 206 0
20 -155 206 0
-206 208 0
-20 -155 -206 0
-206 -222 0
20 155 -206 0
207 -208 0
-20 155 207 0
20 -155 207 0
-207 208 0
20 155 -207 0
-207 -222 0
-20 -155 -207 0
101 -93 0
20 -36 101 0
-20 36 101 0
-101 93 0
-101 -103 0
20 36 -101 0
-20 -36 -101 0
219 -208 0
20 -155 219 0
-20 155 219 0
-219 208 0
20 155 -219 0
-219 -222 0
-20 -155 -219 0
220 -208 0
-20 155 220 0
20 -155 220 0
-220 208 0
-20 -155 -220 0
-220 -222 0
20 155 -220 0
218 -208 0
-20 155 218 0
20 -155 218 0
-218 208 0
20 155 -218 0
-218 -222 0
-20 -155 -218 0
-20 258 319 0
319 -317 0
20 -258 319 0
-20 -258 -319 0
-319 317 0
-319 -325 0
20 258 -319 0
214 -208 0
20 -155 214 0
-20 155 214 0
-214 208 0
-20 -155 -214 0
-214 -222 0
20 155 -214 0
-20 258 321 0
321 -317 0
20 -258 321 0
20 258 -321 0
-321 317 0
-321 -325 0
-20 -258 -321 0
20 -258 324 0
324 -317 0
-20 258 324 0
20 258 -324 0
-324 317 0
-324 -325 0
-20 -258 -324 0
100 -93 0
-20 36 100 0
20 -36 100 0
-100 93 0
-100 -103 0
20 36 -100 0
-20 -36 -100 0
20 -258 320 0
320 -317 0
-20 258 320 0
20 258 -320 0
-320 317 0
-320 -325 0
-20 -258 -320 0
99 -93 0
-20 36 99 0
20 -36 99 0
-99 93 0
-99 -103 0
-20 -36 -99 0
20 36 -99 0
98 -93 0
-20 36 98 0
20 -36 98 0
-98 93 0
-98 -103 0
20 36 -98 0
-20 -36 -98 0
209 -208 0
20 -155 209 0
-20 155 209 0
-209 208 0
-20 -155 -209 0
-209 -222 0
20 155 -209 0
97 -93 0
-20 36 97 0
20 -36 97 0
-97 93 0
-97 -103 0
20 36 -97 0
-20 -36 -97 0
211 -208 0
20 -155 211 0
-20 155 211 0
-211 208 0
20 155 -211 0
-211 -222 0
-20 -155 -211 0
215 -208 0
20 -155 215 0
-20 155 215 0
-215 208 0
-20 -155 -215 0
-215 -222 0
20 155 -215 0
95 -93 0
-20 36 95 0
20 -36 95 0
-95 93 0
-95 -103 0
-20 -36 -95 0
20 36 -95 0
217 -208 0
20 -155 217 0
-20 155 217 0
-217 208 0
20 155 -217 0
-217 -222 0
-20 -155 -217 0
-20 258 323 0
323 -317 0
20 -258 323 0
-20 -258 -323 0
-323 317 0
-323 -325 0
20 258 -323 0
-20 258 318 0
318 -317 0
20 -258 318 0
20 258 -318 0
-318 317 0
-318 -325 0
-20 -258 -318 0
317 -322 0
-20 258 317 0
20 -258 317 0
-317 -325 0
-317 322 0
20 258 -317 0
-20 -258 -317 0
293 294 295 296 297 298 299 300 301 302 303 304 305 306 307 322 325 0
20 -258 322 0
-20 258 322 0
-322 -325 0
-20 -258 -322 0
20 258 -322 0
216 -208 0
-20 155 216 0
20 -155 216 0
-216 208 0
-20 -155 -216 0
-216 -222 0
20 155 -216 0
221 -208 0
-20 155 221 0
20 -155 221 0
-221 208 0
-20 -155 -221 0
-221 -222 0
20 155 -221 0
213 -208 0
-20 155 213 0
20 -155 213 0
-213 208 0
-20 -155 -213 0
-213 -222 0
20 155 -213 0
208 -210 0
-20 155 208 0
20 -155 208 0
-208 -222 0
-208 210 0
-20 -155 -208 0
20 155 -208 0
190 191 192 193 194 195 196 197 198 199 200 201 202 203 204 210 222 0
20 -155 210 0
-20 155 210 0
-210 -222 0
20 155 -210 0
-20 -155 -210 0
94 -93 0
-20 36 94 0
20 -36 94 0
-94 93 0
-94 -103 0
20 36 -94 0
-20 -36 -94 0
93 -96 0
20 -36 93 0
-20 36 93 0
-93 -103 0
-93 96 0
-20 -36 -93 0
20 36 -93 0
71 72 73 74 75 76 77 78 79 80 81 82 83 84 85 96 103 0
-20 36 96 0
20 -36 96 0
-96 -103 0
20 36 -96 0
-20 -36 -96 0
5 -243 293 0
-5 243 293 0
20 258 293 294 295 296 297 298 299 300 301 302 303 304 305 306 307 325 0
-20 -258 293 294 295 296 297 298 299 300 301 302 303 304 305 306 307 325 0
-293 -325 0
-5 -243 -293 0
5 243 -293 0
-19 35 85 0
19 -35 85 0
-20 -36 71 72 73 74 75 76 77 78 79 80 81 82 83 84 85 103 0
20 36 71 72 73 74 75 76 77 78 79 80 81 82 83 84 85 103 0
-85 -103 0
-19 -35 -85 0
19 35 -85 0
-12 147 197 0
12 -147 197 0
-20 -155 190 191 192 193 194 195 196 197 198 199 200 201 202 203 204 222 0
20 155 190 191 192 193 194 195 196 197 198 199 200 201 202 203 204 222 0
-197 -222 0
12 147 -197 0
-12 -147 -197 0
